Route #1: 1 24 15 44 7 14 27 39 46 1
Route #2: 1 5 31 38 3 11 4 1
Route #3: 1 22 42 21 28 2 41 35 32 30 29 1
Route #4: 1 10 37 6 33 23 8 40 9 12 1
Route #5: 1 20 16 17 25 43 34 1
Route #6: 1 13 36 19 26 45 1
Route #7: 1 18 1
cost: 1018
